benchmarks_vrp/CMT4/min_c/CMT4_4.vrp
NAME: CMT4_4
TYPE: CVRP
COMMENT: 1028.42 - Cluster Nr.4
DIMENSION: 16
CAPACITY: 200
EDGE_WEIGHT_TYPE: EUC_2D
NODE_COORD_TYPE: TWOD_COORDS
NODE_COORD_SECTION: 
15 10 20
12 21 24
6 20 26
16 35 35
4 15 19
14 16 22
13 20 26
7 20 20
8 18 18
2 12 24
3 19 21
5 5 25
10 11 14
9 10 17
11 4 18
1 18 24
DEPOT_SECTION: 
16
-1
DEMAND_SECTION: 
3 10
4 1
8 17
9 27
16 0
1 22
11 35
2 13
7 8
12 28
13 9
10 18
6 9
15 19
5 23
14 41
EOF
