benchmarks_vrp/CMT4/min_c/CMT4_4.tour
NAME: CMT4_4 solution
TYPE: TOUR
TOUR_SECTION:
16 6 13 1 14 12 -1
16 2 5 11 15 9 10 4 8 3 7 -1
-1
EOF